p cnf 78 260
-4 -2 0
-4 -3 0
2 3 4 0
-1 4 -5 0
1 -4 -5 0
-1 -4 5 0
1 4 5 0
7 -8 -9 0
-7 8 -9 0
7 8 9 0
-7 -8 9 0
-11 -10 0
-11 -2 0
10 2 11 0
9 11 -12 0
-9 -11 -12 0
9 -11 12 0
-9 11 12 0
-13 6 0
-13 12 0
-6 -12 13 0
-5 -13 -14 0
5 13 -14 0
-5 13 14 0
5 -13 14 0
15 4 0
15 1 0
-4 -1 -15 0
16 -6 0
16 15 0
6 -15 -16 0
-17 18 -19 0
17 -18 -19 0
-17 -18 19 0
17 18 19 0
16 19 -20 0
-16 -19 -20 0
16 -19 20 0
-16 19 20 0
-21 -2 0
-21 20 0
2 -20 21 0
-22 14 0
-22 -21 0
-14 21 22 0
-24 -11 0
-24 23 0
11 -23 24 0
25 24 0
25 17 0
-24 -17 -25 0
-1 -25 -26 0
1 25 -26 0
-1 25 26 0
1 -25 26 0
10 -3 -27 0
-10 3 -27 0
10 3 27 0
-10 -3 27 0
26 27 -28 0
-26 -27 -28 0
26 -27 28 0
-26 27 28 0
22 -28 -29 0
-22 28 -29 0
22 28 29 0
-22 -28 29 0
31 7 0
31 30 0
-7 -30 -31 0
-32 -19 0
-32 31 0
19 -31 32 0
-31 32 -33 0
31 -32 -33 0
-31 -32 33 0
31 32 33 0
-34 17 0
-34 -7 0
-17 7 34 0
-35 2 0
-35 -34 0
-2 34 35 0
36 4 0
36 35 0
-4 -35 -36 0
-33 -36 -37 0
33 36 -37 0
-33 36 37 0
33 -36 37 0
2 8 -38 0
-2 -8 -38 0
2 -8 38 0
-2 8 38 0
-39 1 0
-39 -6 0
-1 6 39 0
-40 -34 0
-40 39 0
34 -39 40 0
-41 40 0
-41 35 0
-40 -35 41 0
42 -12 0
42 41 0
12 -41 -42 0
43 -38 0
43 42 0
38 -42 -43 0
30 18 -44 0
-30 -18 -44 0
30 -18 44 0
-30 18 44 0
45 -43 0
45 -44 0
43 44 -45 0
-37 -45 -46 0
37 45 -46 0
-37 45 46 0
37 -45 46 0
-47 29 0
-47 46 0
-29 -46 47 0
48 10 0
48 -34 0
-10 34 -48 0
-48 49 -50 0
48 -49 -50 0
-48 -49 50 0
48 49 50 0
-51 50 0
-51 -24 0
-50 24 51 0
52 -16 0
52 40 0
16 -40 -52 0
-52 53 -54 0
52 -53 -54 0
-52 -53 54 0
52 53 54 0
-55 -51 0
-55 -54 0
51 54 55 0
-56 -18 0
-56 34 0
18 -34 56 0
-57 31 0
-57 24 0
-31 -24 57 0
-58 18 0
-58 -23 0
-18 23 58 0
-59 57 0
-59 58 0
-57 -58 59 0
-60 56 0
-60 -59 0
-56 59 60 0
-55 60 -61 0
55 -60 -61 0
-55 -60 61 0
55 60 61 0
-62 -15 0
-62 -10 0
15 10 62 0
-63 -62 0
-63 20 0
62 -20 63 0
64 61 0
64 63 0
-61 -63 -64 0
65 24 0
65 52 0
-24 -52 -65 0
8 12 -66 0
-8 -12 -66 0
8 -12 66 0
-8 12 66 0
-67 -66 0
-67 -52 0
66 52 67 0
-68 65 0
-68 -67 0
-65 67 68 0
-69 -49 -70 0
69 49 -70 0
-69 49 70 0
69 -49 70 0
71 -34 0
71 8 0
34 -8 -71 0
-72 34 0
-72 -2 0
-34 2 72 0
-73 71 0
-73 72 0
-71 -72 73 0
-34 -73 -74 0
34 73 -74 0
-34 73 74 0
34 -73 74 0
-75 70 0
-75 -74 0
-70 74 75 0
-68 75 -76 0
68 -75 -76 0
-68 -75 76 0
68 75 76 0
64 -76 -77 0
-64 76 -77 0
64 76 77 0
-64 -76 77 0
-47 77 -78 0
47 -77 -78 0
-47 -77 78 0
47 77 78 0
48 -59 -10 20 0
-27 7 0
20 60 0
-65 -36 -26 0
65 -28 41 0
-17 -60 78 -38 0
-77 -62 -31 -7 -2 0
47 -53 -66 -5 75 0
-41 19 49 0
-76 -15 20 0
56 -13 0
-69 60 -13 -67 -36 -31 0
14 57 24 -37 58 -45 0
41 -7 57 0
-33 38 67 40 0
54 -73 52 0
78 -21 32 5 0
30 -73 -18 -57 -46 0
2 -29 -32 0
39 2 -66 57 0
12 14 -69 36 39 0
30 16 0
-55 -65 -30 0
78 72 0
69 -52 20 0
-59 33 -48 -18 0
43 60 29 74 0
37 -67 -59 69 -27 78 0
-45 78 33 -74 -44 0
-61 12 5 -33 -13 -28 0
-7 -77 57 65 0
62 2 0
16 70 -1 27 -63 0
-67 34 -20 -35 -13 -24 0
61 -18 -19 70 -56 0
12 47 0
27 -57 0
57 21 -77 0
-46 58 0
-32 -40 14 37 0
43 -25 51 0
18 -11 -3 -72 -4 -8 0
-53 20 39 62 -43 -18 0
78 0
